c SAT Generator for power-law distributed variable frequencies
c -g u -v 20 -c 91 -k 3 -p 2.750000 -b 3.200000 -f /home/schmidt/Devel/ni-kop-sat/data/ensemble/ruf20-91/ruf20-91-473 -u 1 -U 1 -s 3483664959
p cnf 20 91
-3 8 -18 0
-10 15 -17 0
-4 -14 19 0
-3 5 -13 0
2 10 14 0
7 -13 -16 0
2 -12 -18 0
10 -11 12 0
-12 13 -17 0
9 -18 -20 0
-7 12 -15 0
7 -9 15 0
2 -15 20 0
14 15 -19 0
-3 -15 20 0
-7 -14 -18 0
3 -15 19 0
5 -7 -17 0
4 11 -13 0
7 -8 -11 0
2 -9 14 0
-3 -11 -16 0
-1 -16 18 0
-1 2 7 0
5 8 -13 0
3 13 -18 0
4 9 -14 0
-14 16 17 0
-2 -16 -20 0
-5 -9 13 0
3 15 -19 0
-7 9 -18 0
2 -7 -18 0
-2 14 -15 0
6 -15 -16 0
-9 -15 -18 0
2 6 11 0
-10 -13 -14 0
7 14 -15 0
-8 -11 -18 0
-7 -9 10 0
-4 -11 13 0
-5 11 15 0
6 14 19 0
-3 11 -13 0
-2 7 19 0
2 -4 16 0
6 7 -13 0
-5 13 19 0
-7 13 19 0
-15 -18 20 0
1 11 -15 0
-1 -13 16 0
6 -12 15 0
2 12 -19 0
-1 -14 18 0
2 9 -12 0
-7 -12 -15 0
-6 -13 -17 0
8 13 14 0
4 6 -9 0
3 -17 -19 0
-6 -8 -16 0
1 8 12 0
-13 -14 15 0
-10 13 -17 0
2 -10 17 0
-10 -15 17 0
-5 -12 -16 0
-8 9 19 0
13 -18 -20 0
-9 10 13 0
2 -11 14 0
-1 13 14 0
-6 -13 -15 0
1 -6 -14 0
2 -6 7 0
5 -10 17 0
2 -5 -12 0
9 -15 -17 0
-8 13 -19 0
-3 5 17 0
2 7 -20 0
-8 -12 -20 0
8 10 -15 0
5 7 -12 0
3 9 -16 0
3 -6 -8 0
-1 -3 -4 0
9 -15 17 0
8 9 -11 0
